
  22    4
  10   10   10   10

   0   0   0   0   0   5 2 3 4 5 6 
   3  10  10  10  10   5 19 12 11 9 7 
  10  10  10  10  10   5 18 16 11 10 8 
   5  10  10  10  10   3 20 16 7 
   2  10  10  10  10   5 21 17 15 14 13 
   1  10  10  10  10   5 17 16 15 14 13 
  10  10  10  10  10   4 18 15 14 13 
   6  10  10  10  10   4 21 15 14 13 
   9  10  10  10  10   3 20 16 13 
   1  10  10  10  10   3 19 14 13 
   3  10  10  10  10   2 17 13 
   8  10  10  10  10   1 13 
   3  10  10  10  10   1 22
   5  10  10  10  10   1 22
   3  10  10  10  10   1 22
   3  10  10  10  10   1 22
   6  10  10  10  10   1 22
   9  10  10  10  10   1 22
   5  10  10  10  10   1 22
   4  10  10  10  10   1 22
  10  10  10  10  10   1 22
   0   0   0   0   0   0 
